/*********************************************
 * OPL 22.1.2.0 Data
 * Author: adrien.dacostaveiga
 * Creation Date: Apr 20, 2026 at 11:41:53 AM
 *********************************************/

// =====================================================
// AIRLAND 2 - DATASET FOR P1
// Weighted Early/Late Penalties
// =====================================================

n = 15;
m = 1;

// ======================
// EARLIEST TIMES
// ======================
E = [
  54, 115, 9, 14, 25,
  32, 34, 34, 40, 59,
  191, 176, 85, 77, 201
];

// ======================
// LATEST TIMES
// ======================
L = [
  129, 190, 84, 89, 100,
  107, 109, 109, 115, 134,
  266, 251, 160, 152, 276
];

// ======================
// TARGET TIMES
// ======================
T = [
  155, 250, 93, 98, 111,
  120, 121, 120, 128, 151,
  341, 313, 181, 171, 342
];

// ======================
// PENALTIES
// ======================
cMinus = [
  10,10,30,30,30,
  30,30,30,30,30,
  10,10,30,30,10
];

cPlus = [
  10,10,30,30,30,
  30,30,30,30,30,
  10,10,30,30,10
];

// ======================
// SEPARATION MATRIX
// ======================
s = [
 [99999,3,15,15,15,15,15,15,15,15,15,15,15,15,15],
 [3,99999,15,15,15,15,15,15,15,15,15,15,15,15,15],
 [15,15,99999,8,8,8,8,8,8,8,8,8,8,8,8],
 [15,15,8,99999,8,8,8,8,8,8,8,8,8,8,8],
 [15,15,8,8,99999,8,8,8,8,8,8,8,8,8,8],
 [15,15,8,8,8,99999,8,8,8,8,8,8,8,8,8],
 [15,15,8,8,8,8,99999,8,8,8,8,8,8,8,8],
 [15,15,8,8,8,8,8,99999,8,8,8,8,8,8,8],
 [15,15,8,8,8,8,8,8,99999,8,8,8,8,8,8],
 [15,15,8,8,8,8,8,8,8,99999,8,8,8,8,8],
 [15,15,8,8,8,8,8,8,8,8,99999,3,15,15,3],
 [15,15,8,8,8,8,8,8,8,8,3,99999,15,15,3],
 [15,15,8,8,8,8,8,8,8,8,15,15,99999,8,15],
 [15,15,8,8,8,8,8,8,8,8,15,15,8,99999,15],
 [15,15,8,8,8,8,8,8,8,8,3,3,15,15,99999]
];

// ======================
// BIG-M
// ======================
M = 10000;